5
25
0 36000
21540 28740
17700 24900
22560 29760
4620 11820
23280 30480
5820 13020
27600 34800
1860 9060
1740 8940
22860 30060
10920 18120
13320 20520
3420 10620
3300 10500
4980 12180
1380 8580
20580 27780
15360 22560
16140 23340
6240 13440
13500 20700
21480 28680
21660 28860
11460 18660
26040 33240